c File: flat150_3_0.col
c
c SOURCE: Joseph Culberson (joe@cs.ualberta.ca)
c DESCRIPTION: Quasi-random coloring problem
c              generated with flatness = 0
c                             probability = 0.048
c                             known coloring = 3
c                             random seed = 1100
c              Creation Date:  Wed Feb 24 10:37:56 1999
c Maximum degree = 8 Minimum degree = 0
c COLOR VERIFICATION: Using the permuted order
c under simple greedy yields the specified
c coloring number
c Color = 3 specified partitions = 3
c p edge 150 360
c cnf created by edge2cnf
p cnf 450 1680
-1 -2 0
-1 -3 0
-2 -3 0
1 2 3 0
-4 -5 0
-4 -6 0
-5 -6 0
4 5 6 0
-7 -8 0
-7 -9 0
-8 -9 0
7 8 9 0
-10 -11 0
-10 -12 0
-11 -12 0
10 11 12 0
-13 -14 0
-13 -15 0
-14 -15 0
13 14 15 0
-16 -17 0
-16 -18 0
-17 -18 0
16 17 18 0
-19 -20 0
-19 -21 0
-20 -21 0
19 20 21 0
-22 -23 0
-22 -24 0
-23 -24 0
22 23 24 0
-25 -26 0
-25 -27 0
-26 -27 0
25 26 27 0
-28 -29 0
-28 -30 0
-29 -30 0
28 29 30 0
-31 -32 0
-31 -33 0
-32 -33 0
31 32 33 0
-34 -35 0
-34 -36 0
-35 -36 0
34 35 36 0
-37 -38 0
-37 -39 0
-38 -39 0
37 38 39 0
-40 -41 0
-40 -42 0
-41 -42 0
40 41 42 0
-43 -44 0
-43 -45 0
-44 -45 0
43 44 45 0
-46 -47 0
-46 -48 0
-47 -48 0
46 47 48 0
-49 -50 0
-49 -51 0
-50 -51 0
49 50 51 0
-52 -53 0
-52 -54 0
-53 -54 0
52 53 54 0
-55 -56 0
-55 -57 0
-56 -57 0
55 56 57 0
-58 -59 0
-58 -60 0
-59 -60 0
58 59 60 0
-61 -62 0
-61 -63 0
-62 -63 0
61 62 63 0
-64 -65 0
-64 -66 0
-65 -66 0
64 65 66 0
-67 -68 0
-67 -69 0
-68 -69 0
67 68 69 0
-70 -71 0
-70 -72 0
-71 -72 0
70 71 72 0
-73 -74 0
-73 -75 0
-74 -75 0
73 74 75 0
-76 -77 0
-76 -78 0
-77 -78 0
76 77 78 0
-79 -80 0
-79 -81 0
-80 -81 0
79 80 81 0
-82 -83 0
-82 -84 0
-83 -84 0
82 83 84 0
-85 -86 0
-85 -87 0
-86 -87 0
85 86 87 0
-88 -89 0
-88 -90 0
-89 -90 0
88 89 90 0
-91 -92 0
-91 -93 0
-92 -93 0
91 92 93 0
-94 -95 0
-94 -96 0
-95 -96 0
94 95 96 0
-97 -98 0
-97 -99 0
-98 -99 0
97 98 99 0
-100 -101 0
-100 -102 0
-101 -102 0
100 101 102 0
-103 -104 0
-103 -105 0
-104 -105 0
103 104 105 0
-106 -107 0
-106 -108 0
-107 -108 0
106 107 108 0
-109 -110 0
-109 -111 0
-110 -111 0
109 110 111 0
-112 -113 0
-112 -114 0
-113 -114 0
112 113 114 0
-115 -116 0
-115 -117 0
-116 -117 0
115 116 117 0
-118 -119 0
-118 -120 0
-119 -120 0
118 119 120 0
-121 -122 0
-121 -123 0
-122 -123 0
121 122 123 0
-124 -125 0
-124 -126 0
-125 -126 0
124 125 126 0
-127 -128 0
-127 -129 0
-128 -129 0
127 128 129 0
-130 -131 0
-130 -132 0
-131 -132 0
130 131 132 0
-133 -134 0
-133 -135 0
-134 -135 0
133 134 135 0
-136 -137 0
-136 -138 0
-137 -138 0
136 137 138 0
-139 -140 0
-139 -141 0
-140 -141 0
139 140 141 0
-142 -143 0
-142 -144 0
-143 -144 0
142 143 144 0
-145 -146 0
-145 -147 0
-146 -147 0
145 146 147 0
-148 -149 0
-148 -150 0
-149 -150 0
148 149 150 0
-151 -152 0
-151 -153 0
-152 -153 0
151 152 153 0
-154 -155 0
-154 -156 0
-155 -156 0
154 155 156 0
-157 -158 0
-157 -159 0
-158 -159 0
157 158 159 0
-160 -161 0
-160 -162 0
-161 -162 0
160 161 162 0
-163 -164 0
-163 -165 0
-164 -165 0
163 164 165 0
-166 -167 0
-166 -168 0
-167 -168 0
166 167 168 0
-169 -170 0
-169 -171 0
-170 -171 0
169 170 171 0
-172 -173 0
-172 -174 0
-173 -174 0
172 173 174 0
-175 -176 0
-175 -177 0
-176 -177 0
175 176 177 0
-178 -179 0
-178 -180 0
-179 -180 0
178 179 180 0
-181 -182 0
-181 -183 0
-182 -183 0
181 182 183 0
-184 -185 0
-184 -186 0
-185 -186 0
184 185 186 0
-187 -188 0
-187 -189 0
-188 -189 0
187 188 189 0
-190 -191 0
-190 -192 0
-191 -192 0
190 191 192 0
-193 -194 0
-193 -195 0
-194 -195 0
193 194 195 0
-196 -197 0
-196 -198 0
-197 -198 0
196 197 198 0
-199 -200 0
-199 -201 0
-200 -201 0
199 200 201 0
-202 -203 0
-202 -204 0
-203 -204 0
202 203 204 0
-205 -206 0
-205 -207 0
-206 -207 0
205 206 207 0
-208 -209 0
-208 -210 0
-209 -210 0
208 209 210 0
-211 -212 0
-211 -213 0
-212 -213 0
211 212 213 0
-214 -215 0
-214 -216 0
-215 -216 0
214 215 216 0
-217 -218 0
-217 -219 0
-218 -219 0
217 218 219 0
-220 -221 0
-220 -222 0
-221 -222 0
220 221 222 0
-223 -224 0
-223 -225 0
-224 -225 0
223 224 225 0
-226 -227 0
-226 -228 0
-227 -228 0
226 227 228 0
-229 -230 0
-229 -231 0
-230 -231 0
229 230 231 0
-232 -233 0
-232 -234 0
-233 -234 0
232 233 234 0
-235 -236 0
-235 -237 0
-236 -237 0
235 236 237 0
-238 -239 0
-238 -240 0
-239 -240 0
238 239 240 0
-241 -242 0
-241 -243 0
-242 -243 0
241 242 243 0
-244 -245 0
-244 -246 0
-245 -246 0
244 245 246 0
-247 -248 0
-247 -249 0
-248 -249 0
247 248 249 0
-250 -251 0
-250 -252 0
-251 -252 0
250 251 252 0
-253 -254 0
-253 -255 0
-254 -255 0
253 254 255 0
-256 -257 0
-256 -258 0
-257 -258 0
256 257 258 0
-259 -260 0
-259 -261 0
-260 -261 0
259 260 261 0
-262 -263 0
-262 -264 0
-263 -264 0
262 263 264 0
-265 -266 0
-265 -267 0
-266 -267 0
265 266 267 0
-268 -269 0
-268 -270 0
-269 -270 0
268 269 270 0
-271 -272 0
-271 -273 0
-272 -273 0
271 272 273 0
-274 -275 0
-274 -276 0
-275 -276 0
274 275 276 0
-277 -278 0
-277 -279 0
-278 -279 0
277 278 279 0
-280 -281 0
-280 -282 0
-281 -282 0
280 281 282 0
-283 -284 0
-283 -285 0
-284 -285 0
283 284 285 0
-286 -287 0
-286 -288 0
-287 -288 0
286 287 288 0
-289 -290 0
-289 -291 0
-290 -291 0
289 290 291 0
-292 -293 0
-292 -294 0
-293 -294 0
292 293 294 0
-295 -296 0
-295 -297 0
-296 -297 0
295 296 297 0
-298 -299 0
-298 -300 0
-299 -300 0
298 299 300 0
-301 -302 0
-301 -303 0
-302 -303 0
301 302 303 0
-304 -305 0
-304 -306 0
-305 -306 0
304 305 306 0
-307 -308 0
-307 -309 0
-308 -309 0
307 308 309 0
-310 -311 0
-310 -312 0
-311 -312 0
310 311 312 0
-313 -314 0
-313 -315 0
-314 -315 0
313 314 315 0
-316 -317 0
-316 -318 0
-317 -318 0
316 317 318 0
-319 -320 0
-319 -321 0
-320 -321 0
319 320 321 0
-322 -323 0
-322 -324 0
-323 -324 0
322 323 324 0
-325 -326 0
-325 -327 0
-326 -327 0
325 326 327 0
-328 -329 0
-328 -330 0
-329 -330 0
328 329 330 0
-331 -332 0
-331 -333 0
-332 -333 0
331 332 333 0
-334 -335 0
-334 -336 0
-335 -336 0
334 335 336 0
-337 -338 0
-337 -339 0
-338 -339 0
337 338 339 0
-340 -341 0
-340 -342 0
-341 -342 0
340 341 342 0
-343 -344 0
-343 -345 0
-344 -345 0
343 344 345 0
-346 -347 0
-346 -348 0
-347 -348 0
346 347 348 0
-349 -350 0
-349 -351 0
-350 -351 0
349 350 351 0
-352 -353 0
-352 -354 0
-353 -354 0
352 353 354 0
-355 -356 0
-355 -357 0
-356 -357 0
355 356 357 0
-358 -359 0
-358 -360 0
-359 -360 0
358 359 360 0
-361 -362 0
-361 -363 0
-362 -363 0
361 362 363 0
-364 -365 0
-364 -366 0
-365 -366 0
364 365 366 0
-367 -368 0
-367 -369 0
-368 -369 0
367 368 369 0
-370 -371 0
-370 -372 0
-371 -372 0
370 371 372 0
-373 -374 0
-373 -375 0
-374 -375 0
373 374 375 0
-376 -377 0
-376 -378 0
-377 -378 0
376 377 378 0
-379 -380 0
-379 -381 0
-380 -381 0
379 380 381 0
-382 -383 0
-382 -384 0
-383 -384 0
382 383 384 0
-385 -386 0
-385 -387 0
-386 -387 0
385 386 387 0
-388 -389 0
-388 -390 0
-389 -390 0
388 389 390 0
-391 -392 0
-391 -393 0
-392 -393 0
391 392 393 0
-394 -395 0
-394 -396 0
-395 -396 0
394 395 396 0
-397 -398 0
-397 -399 0
-398 -399 0
397 398 399 0
-400 -401 0
-400 -402 0
-401 -402 0
400 401 402 0
-403 -404 0
-403 -405 0
-404 -405 0
403 404 405 0
-406 -407 0
-406 -408 0
-407 -408 0
406 407 408 0
-409 -410 0
-409 -411 0
-410 -411 0
409 410 411 0
-412 -413 0
-412 -414 0
-413 -414 0
412 413 414 0
-415 -416 0
-415 -417 0
-416 -417 0
415 416 417 0
-418 -419 0
-418 -420 0
-419 -420 0
418 419 420 0
-421 -422 0
-421 -423 0
-422 -423 0
421 422 423 0
-424 -425 0
-424 -426 0
-425 -426 0
424 425 426 0
-427 -428 0
-427 -429 0
-428 -429 0
427 428 429 0
-430 -431 0
-430 -432 0
-431 -432 0
430 431 432 0
-433 -434 0
-433 -435 0
-434 -435 0
433 434 435 0
-436 -437 0
-436 -438 0
-437 -438 0
436 437 438 0
-439 -440 0
-439 -441 0
-440 -441 0
439 440 441 0
-442 -443 0
-442 -444 0
-443 -444 0
442 443 444 0
-445 -446 0
-445 -447 0
-446 -447 0
445 446 447 0
-448 -449 0
-448 -450 0
-449 -450 0
448 449 450 0
-19 -1 0
-20 -2 0
-21 -3 0
-190 -1 0
-191 -2 0
-192 -3 0
-232 -1 0
-233 -2 0
-234 -3 0
-271 -1 0
-272 -2 0
-273 -3 0
-346 -1 0
-347 -2 0
-348 -3 0
-28 -4 0
-29 -5 0
-30 -6 0
-217 -4 0
-218 -5 0
-219 -6 0
-232 -4 0
-233 -5 0
-234 -6 0
-364 -4 0
-365 -5 0
-366 -6 0
-367 -4 0
-368 -5 0
-369 -6 0
-103 -7 0
-104 -8 0
-105 -9 0
-130 -7 0
-131 -8 0
-132 -9 0
-142 -7 0
-143 -8 0
-144 -9 0
-154 -7 0
-155 -8 0
-156 -9 0
-175 -7 0
-176 -8 0
-177 -9 0
-349 -7 0
-350 -8 0
-351 -9 0
-406 -7 0
-407 -8 0
-408 -9 0
-223 -10 0
-224 -11 0
-225 -12 0
-343 -10 0
-344 -11 0
-345 -12 0
-337 -13 0
-338 -14 0
-339 -15 0
-442 -13 0
-443 -14 0
-444 -15 0
-70 -16 0
-71 -17 0
-72 -18 0
-238 -16 0
-239 -17 0
-240 -18 0
-265 -16 0
-266 -17 0
-267 -18 0
-334 -16 0
-335 -17 0
-336 -18 0
-352 -16 0
-353 -17 0
-354 -18 0
-28 -19 0
-29 -20 0
-30 -21 0
-31 -19 0
-32 -20 0
-33 -21 0
-226 -19 0
-227 -20 0
-228 -21 0
-343 -19 0
-344 -20 0
-345 -21 0
-385 -19 0
-386 -20 0
-387 -21 0
-166 -22 0
-167 -23 0
-168 -24 0
-391 -22 0
-392 -23 0
-393 -24 0
-415 -22 0
-416 -23 0
-417 -24 0
-424 -25 0
-425 -26 0
-426 -27 0
-106 -28 0
-107 -29 0
-108 -30 0
-112 -28 0
-113 -29 0
-114 -30 0
-163 -28 0
-164 -29 0
-165 -30 0
-241 -28 0
-242 -29 0
-243 -30 0
-361 -28 0
-362 -29 0
-363 -30 0
-55 -31 0
-56 -32 0
-57 -33 0
-70 -31 0
-71 -32 0
-72 -33 0
-127 -31 0
-128 -32 0
-129 -33 0
-262 -31 0
-263 -32 0
-264 -33 0
-286 -34 0
-287 -35 0
-288 -36 0
-64 -37 0
-65 -38 0
-66 -39 0
-250 -37 0
-251 -38 0
-252 -39 0
-253 -37 0
-254 -38 0
-255 -39 0
-268 -37 0
-269 -38 0
-270 -39 0
-298 -37 0
-299 -38 0
-300 -39 0
-397 -37 0
-398 -38 0
-399 -39 0
-88 -40 0
-89 -41 0
-90 -42 0
-169 -40 0
-170 -41 0
-171 -42 0
-214 -40 0
-215 -41 0
-216 -42 0
-364 -40 0
-365 -41 0
-366 -42 0
-148 -43 0
-149 -44 0
-150 -45 0
-199 -43 0
-200 -44 0
-201 -45 0
-241 -43 0
-242 -44 0
-243 -45 0
-256 -43 0
-257 -44 0
-258 -45 0
-259 -43 0
-260 -44 0
-261 -45 0
-346 -43 0
-347 -44 0
-348 -45 0
-358 -43 0
-359 -44 0
-360 -45 0
-442 -43 0
-443 -44 0
-444 -45 0
-97 -46 0
-98 -47 0
-99 -48 0
-319 -46 0
-320 -47 0
-321 -48 0
-76 -49 0
-77 -50 0
-78 -51 0
-79 -49 0
-80 -50 0
-81 -51 0
-178 -49 0
-179 -50 0
-180 -51 0
-322 -49 0
-323 -50 0
-324 -51 0
-328 -49 0
-329 -50 0
-330 -51 0
-334 -49 0
-335 -50 0
-336 -51 0
-358 -49 0
-359 -50 0
-360 -51 0
-442 -49 0
-443 -50 0
-444 -51 0
-112 -52 0
-113 -53 0
-114 -54 0
-148 -52 0
-149 -53 0
-150 -54 0
-301 -52 0
-302 -53 0
-303 -54 0
-400 -52 0
-401 -53 0
-402 -54 0
-91 -55 0
-92 -56 0
-93 -57 0
-136 -55 0
-137 -56 0
-138 -57 0
-199 -55 0
-200 -56 0
-201 -57 0
-328 -55 0
-329 -56 0
-330 -57 0
-418 -55 0
-419 -56 0
-420 -57 0
-433 -55 0
-434 -56 0
-435 -57 0
-79 -58 0
-80 -59 0
-81 -60 0
-151 -58 0
-152 -59 0
-153 -60 0
-220 -58 0
-221 -59 0
-222 -60 0
-268 -58 0
-269 -59 0
-270 -60 0
-277 -58 0
-278 -59 0
-279 -60 0
-301 -58 0
-302 -59 0
-303 -60 0
-88 -61 0
-89 -62 0
-90 -63 0
-163 -61 0
-164 -62 0
-165 -63 0
-190 -61 0
-191 -62 0
-192 -63 0
-328 -61 0
-329 -62 0
-330 -63 0
-376 -61 0
-377 -62 0
-378 -63 0
-409 -61 0
-410 -62 0
-411 -63 0
-448 -61 0
-449 -62 0
-450 -63 0
-262 -64 0
-263 -65 0
-264 -66 0
-76 -67 0
-77 -68 0
-78 -69 0
-142 -67 0
-143 -68 0
-144 -69 0
-379 -70 0
-380 -71 0
-381 -72 0
-79 -73 0
-80 -74 0
-81 -75 0
-217 -73 0
-218 -74 0
-219 -75 0
-229 -73 0
-230 -74 0
-231 -75 0
-169 -76 0
-170 -77 0
-171 -78 0
-172 -76 0
-173 -77 0
-174 -78 0
-361 -76 0
-362 -77 0
-363 -78 0
-151 -79 0
-152 -80 0
-153 -81 0
-166 -79 0
-167 -80 0
-168 -81 0
-178 -79 0
-179 -80 0
-180 -81 0
-343 -79 0
-344 -80 0
-345 -81 0
-436 -79 0
-437 -80 0
-438 -81 0
-190 -82 0
-191 -83 0
-192 -84 0
-316 -82 0
-317 -83 0
-318 -84 0
-328 -82 0
-329 -83 0
-330 -84 0
-112 -85 0
-113 -86 0
-114 -87 0
-283 -85 0
-284 -86 0
-285 -87 0
-400 -85 0
-401 -86 0
-402 -87 0
-235 -88 0
-236 -89 0
-237 -90 0
-262 -88 0
-263 -89 0
-264 -90 0
-427 -88 0
-428 -89 0
-429 -90 0
-106 -91 0
-107 -92 0
-108 -93 0
-136 -91 0
-137 -92 0
-138 -93 0
-220 -91 0
-221 -92 0
-222 -93 0
-226 -91 0
-227 -92 0
-228 -93 0
-355 -91 0
-356 -92 0
-357 -93 0
-97 -94 0
-98 -95 0
-99 -96 0
-190 -94 0
-191 -95 0
-192 -96 0
-289 -94 0
-290 -95 0
-291 -96 0
-394 -94 0
-395 -95 0
-396 -96 0
-208 -97 0
-209 -98 0
-210 -99 0
-262 -97 0
-263 -98 0
-264 -99 0
-361 -97 0
-362 -98 0
-363 -99 0
-139 -100 0
-140 -101 0
-141 -102 0
-181 -100 0
-182 -101 0
-183 -102 0
-283 -100 0
-284 -101 0
-285 -102 0
-319 -100 0
-320 -101 0
-321 -102 0
-415 -100 0
-416 -101 0
-417 -102 0
-205 -103 0
-206 -104 0
-207 -105 0
-382 -103 0
-383 -104 0
-384 -105 0
-232 -106 0
-233 -107 0
-234 -108 0
-244 -109 0
-245 -110 0
-246 -111 0
-256 -109 0
-257 -110 0
-258 -111 0
-286 -109 0
-287 -110 0
-288 -111 0
-271 -112 0
-272 -113 0
-273 -114 0
-325 -112 0
-326 -113 0
-327 -114 0
-355 -112 0
-356 -113 0
-357 -114 0
-139 -115 0
-140 -116 0
-141 -117 0
-178 -115 0
-179 -116 0
-180 -117 0
-193 -115 0
-194 -116 0
-195 -117 0
-238 -115 0
-239 -116 0
-240 -117 0
-301 -115 0
-302 -116 0
-303 -117 0
-220 -118 0
-221 -119 0
-222 -120 0
-367 -118 0
-368 -119 0
-369 -120 0
-424 -118 0
-425 -119 0
-426 -120 0
-241 -121 0
-242 -122 0
-243 -123 0
-310 -121 0
-311 -122 0
-312 -123 0
-439 -121 0
-440 -122 0
-441 -123 0
-127 -124 0
-128 -125 0
-129 -126 0
-304 -124 0
-305 -125 0
-306 -126 0
-430 -124 0
-431 -125 0
-432 -126 0
-445 -124 0
-446 -125 0
-447 -126 0
-139 -127 0
-140 -128 0
-141 -129 0
-160 -127 0
-161 -128 0
-162 -129 0
-205 -127 0
-206 -128 0
-207 -129 0
-316 -127 0
-317 -128 0
-318 -129 0
-322 -127 0
-323 -128 0
-324 -129 0
-355 -130 0
-356 -131 0
-357 -132 0
-373 -130 0
-374 -131 0
-375 -132 0
-214 -133 0
-215 -134 0
-216 -135 0
-304 -133 0
-305 -134 0
-306 -135 0
-313 -133 0
-314 -134 0
-315 -135 0
-385 -133 0
-386 -134 0
-387 -135 0
-148 -136 0
-149 -137 0
-150 -138 0
-376 -136 0
-377 -137 0
-378 -138 0
-145 -139 0
-146 -140 0
-147 -141 0
-349 -139 0
-350 -140 0
-351 -141 0
-145 -142 0
-146 -143 0
-147 -144 0
-160 -142 0
-161 -143 0
-162 -144 0
-175 -142 0
-176 -143 0
-177 -144 0
-403 -142 0
-404 -143 0
-405 -144 0
-241 -145 0
-242 -146 0
-243 -147 0
-436 -145 0
-437 -146 0
-438 -147 0
-400 -148 0
-401 -149 0
-402 -150 0
-436 -148 0
-437 -149 0
-438 -150 0
-184 -151 0
-185 -152 0
-186 -153 0
-205 -151 0
-206 -152 0
-207 -153 0
-208 -151 0
-209 -152 0
-210 -153 0
-211 -151 0
-212 -152 0
-213 -153 0
-316 -151 0
-317 -152 0
-318 -153 0
-436 -151 0
-437 -152 0
-438 -153 0
-178 -154 0
-179 -155 0
-180 -156 0
-193 -154 0
-194 -155 0
-195 -156 0
-199 -154 0
-200 -155 0
-201 -156 0
-262 -154 0
-263 -155 0
-264 -156 0
-298 -154 0
-299 -155 0
-300 -156 0
-340 -154 0
-341 -155 0
-342 -156 0
-364 -154 0
-365 -155 0
-366 -156 0
-202 -157 0
-203 -158 0
-204 -159 0
-271 -157 0
-272 -158 0
-273 -159 0
-280 -157 0
-281 -158 0
-282 -159 0
-355 -157 0
-356 -158 0
-357 -159 0
-256 -160 0
-257 -161 0
-258 -162 0
-268 -160 0
-269 -161 0
-270 -162 0
-304 -160 0
-305 -161 0
-306 -162 0
-310 -160 0
-311 -161 0
-312 -162 0
-322 -163 0
-323 -164 0
-324 -165 0
-328 -163 0
-329 -164 0
-330 -165 0
-346 -163 0
-347 -164 0
-348 -165 0
-397 -163 0
-398 -164 0
-399 -165 0
-184 -166 0
-185 -167 0
-186 -168 0
-349 -166 0
-350 -167 0
-351 -168 0
-358 -166 0
-359 -167 0
-360 -168 0
-328 -169 0
-329 -170 0
-330 -171 0
-406 -169 0
-407 -170 0
-408 -171 0
-214 -172 0
-215 -173 0
-216 -174 0
-241 -172 0
-242 -173 0
-243 -174 0
-268 -172 0
-269 -173 0
-270 -174 0
-307 -172 0
-308 -173 0
-309 -174 0
-322 -172 0
-323 -173 0
-324 -174 0
-382 -175 0
-383 -176 0
-384 -177 0
-259 -181 0
-260 -182 0
-261 -183 0
-319 -181 0
-320 -182 0
-321 -183 0
-409 -181 0
-410 -182 0
-411 -183 0
-193 -184 0
-194 -185 0
-195 -186 0
-295 -184 0
-296 -185 0
-297 -186 0
-325 -184 0
-326 -185 0
-327 -186 0
-211 -187 0
-212 -188 0
-213 -189 0
-376 -187 0
-377 -188 0
-378 -189 0
-217 -190 0
-218 -191 0
-219 -192 0
-223 -190 0
-224 -191 0
-225 -192 0
-226 -190 0
-227 -191 0
-228 -192 0
-385 -190 0
-386 -191 0
-387 -192 0
-196 -193 0
-197 -194 0
-198 -195 0
-214 -193 0
-215 -194 0
-216 -195 0
-229 -193 0
-230 -194 0
-231 -195 0
-355 -193 0
-356 -194 0
-357 -195 0
-241 -196 0
-242 -197 0
-243 -198 0
-340 -196 0
-341 -197 0
-342 -198 0
-394 -196 0
-395 -197 0
-396 -198 0
-397 -196 0
-398 -197 0
-399 -198 0
-403 -196 0
-404 -197 0
-405 -198 0
-202 -199 0
-203 -200 0
-204 -201 0
-223 -199 0
-224 -200 0
-225 -201 0
-244 -199 0
-245 -200 0
-246 -201 0
-304 -199 0
-305 -200 0
-306 -201 0
-337 -202 0
-338 -203 0
-339 -204 0
-442 -202 0
-443 -203 0
-444 -204 0
-442 -205 0
-443 -206 0
-444 -207 0
-445 -205 0
-446 -206 0
-447 -207 0
-229 -211 0
-230 -212 0
-231 -213 0
-322 -211 0
-323 -212 0
-324 -213 0
-289 -214 0
-290 -215 0
-291 -216 0
-319 -220 0
-320 -221 0
-321 -222 0
-262 -223 0
-263 -224 0
-264 -225 0
-322 -223 0
-323 -224 0
-324 -225 0
-364 -223 0
-365 -224 0
-366 -225 0
-373 -223 0
-374 -224 0
-375 -225 0
-403 -223 0
-404 -224 0
-405 -225 0
-256 -226 0
-257 -227 0
-258 -228 0
-337 -226 0
-338 -227 0
-339 -228 0
-280 -229 0
-281 -230 0
-282 -231 0
-361 -229 0
-362 -230 0
-363 -231 0
-388 -229 0
-389 -230 0
-390 -231 0
-259 -232 0
-260 -233 0
-261 -234 0
-304 -232 0
-305 -233 0
-306 -234 0
-382 -232 0
-383 -233 0
-384 -234 0
-325 -235 0
-326 -236 0
-327 -237 0
-427 -235 0
-428 -236 0
-429 -237 0
-250 -238 0
-251 -239 0
-252 -240 0
-376 -238 0
-377 -239 0
-378 -240 0
-427 -238 0
-428 -239 0
-429 -240 0
-334 -241 0
-335 -242 0
-336 -243 0
-307 -244 0
-308 -245 0
-309 -246 0
-394 -244 0
-395 -245 0
-396 -246 0
-400 -244 0
-401 -245 0
-402 -246 0
-415 -244 0
-416 -245 0
-417 -246 0
-382 -247 0
-383 -248 0
-384 -249 0
-394 -247 0
-395 -248 0
-396 -249 0
-400 -250 0
-401 -251 0
-402 -252 0
-331 -253 0
-332 -254 0
-333 -255 0
-409 -253 0
-410 -254 0
-411 -255 0
-418 -253 0
-419 -254 0
-420 -255 0
-307 -256 0
-308 -257 0
-309 -258 0
-382 -256 0
-383 -257 0
-384 -258 0
-391 -256 0
-392 -257 0
-393 -258 0
-283 -259 0
-284 -260 0
-285 -261 0
-403 -259 0
-404 -260 0
-405 -261 0
-271 -262 0
-272 -263 0
-273 -264 0
-346 -262 0
-347 -263 0
-348 -264 0
-274 -265 0
-275 -266 0
-276 -267 0
-298 -265 0
-299 -266 0
-300 -267 0
-289 -271 0
-290 -272 0
-291 -273 0
-316 -271 0
-317 -272 0
-318 -273 0
-376 -271 0
-377 -272 0
-378 -273 0
-439 -271 0
-440 -272 0
-441 -273 0
-358 -274 0
-359 -275 0
-360 -276 0
-361 -274 0
-362 -275 0
-363 -276 0
-397 -274 0
-398 -275 0
-399 -276 0
-448 -274 0
-449 -275 0
-450 -276 0
-349 -277 0
-350 -278 0
-351 -279 0
-394 -277 0
-395 -278 0
-396 -279 0
-427 -277 0
-428 -278 0
-429 -279 0
-295 -280 0
-296 -281 0
-297 -282 0
-301 -280 0
-302 -281 0
-303 -282 0
-391 -280 0
-392 -281 0
-393 -282 0
-406 -280 0
-407 -281 0
-408 -282 0
-409 -280 0
-410 -281 0
-411 -282 0
-289 -283 0
-290 -284 0
-291 -285 0
-364 -283 0
-365 -284 0
-366 -285 0
-361 -289 0
-362 -290 0
-363 -291 0
-349 -292 0
-350 -293 0
-351 -294 0
-388 -292 0
-389 -293 0
-390 -294 0
-439 -292 0
-440 -293 0
-441 -294 0
-412 -295 0
-413 -296 0
-414 -297 0
-304 -298 0
-305 -299 0
-306 -300 0
-367 -298 0
-368 -299 0
-369 -300 0
-376 -298 0
-377 -299 0
-378 -300 0
-430 -298 0
-431 -299 0
-432 -300 0
-310 -301 0
-311 -302 0
-312 -303 0
-361 -301 0
-362 -302 0
-363 -303 0
-355 -304 0
-356 -305 0
-357 -306 0
-418 -304 0
-419 -305 0
-420 -306 0
-325 -307 0
-326 -308 0
-327 -309 0
-376 -307 0
-377 -308 0
-378 -309 0
-385 -307 0
-386 -308 0
-387 -309 0
-334 -310 0
-335 -311 0
-336 -312 0
-358 -310 0
-359 -311 0
-360 -312 0
-367 -310 0
-368 -311 0
-369 -312 0
-400 -316 0
-401 -317 0
-402 -318 0
-403 -319 0
-404 -320 0
-405 -321 0
-376 -322 0
-377 -323 0
-378 -324 0
-400 -322 0
-401 -323 0
-402 -324 0
-379 -325 0
-380 -326 0
-381 -327 0
-406 -325 0
-407 -326 0
-408 -327 0
-439 -325 0
-440 -326 0
-441 -327 0
-391 -328 0
-392 -329 0
-393 -330 0
-415 -328 0
-416 -329 0
-417 -330 0
-424 -331 0
-425 -332 0
-426 -333 0
-352 -337 0
-353 -338 0
-354 -339 0
-355 -337 0
-356 -338 0
-357 -339 0
-388 -337 0
-389 -338 0
-390 -339 0
-409 -340 0
-410 -341 0
-411 -342 0
-385 -346 0
-386 -347 0
-387 -348 0
-373 -349 0
-374 -350 0
-375 -351 0
-433 -352 0
-434 -353 0
-435 -354 0
-448 -352 0
-449 -353 0
-450 -354 0
-373 -355 0
-374 -356 0
-375 -357 0
-394 -358 0
-395 -359 0
-396 -360 0
-379 -361 0
-380 -362 0
-381 -363 0
-448 -367 0
-449 -368 0
-450 -369 0
-400 -373 0
-401 -374 0
-402 -375 0
-421 -388 0
-422 -389 0
-423 -390 0
-445 -388 0
-446 -389 0
-447 -390 0
-409 -391 0
-410 -392 0
-411 -393 0
-421 -406 0
-422 -407 0
-423 -408 0
-424 -412 0
-425 -413 0
-426 -414 0
-436 -412 0
-437 -413 0
-438 -414 0
-448 -412 0
-449 -413 0
-450 -414 0
-421 -418 0
-422 -419 0
-423 -420 0
-430 -421 0
-431 -422 0
-432 -423 0
